# Random Circle Problem
param d := 0.05; 
param n := 10; 
param radius := 2.00; 
param v0 := 
1 5.79
2 5.27
3 5.79
4 5.22
5 5.34
6 5.78
7 5.65
8 5.01
9 4.89
10 5.61
;
param cap := 
1 3.07639
2 3.39939
3 4.52727
4 5.50732
5 5.45094
6 0.47724
7 0.54421
8 1.55591
9 2.05485
10 2.06558
;
param x0 := 
1 2.00
2 1.62
3 0.62
4 -0.62
5 -1.62
6 -2.00
7 -1.62
8 -0.62
9 0.62
10 1.62
;
param y0 := 
1 -0.00
2 1.18
3 1.90
4 1.90
5 1.18
6 0.00
7 -1.18
8 -1.90
9 -1.90
10 -1.18
;
